958834
958834
958834
958834
955809
925371
925371
924278
919654
907307
888076
888076
878258
878258
878258
874664
874664
874664
863414
863414
857923
857923
847384
847384
847384
841169
841169
836957
836957
836957
828055
823984
823984
804654
804654
804654
804654
797918
797918
797918
797918
797918
797918
770289
770289
770289
770289
770289
770289
762366
762366
762366
762366
746722
746722
746722
746722
746722
743066
743066
743066
743066
734970
712758
712758
712758
712758
712758
712758
712758
712758
712758
712758
703118
701382
701382
701382
679683
679203
679203
679203
679203
676842
668038
665795
665422
665422
665422
665422
665422
665422
665422
664203
664203
663722
652577
652577
652577
652577
652577
